isodistort-output
3.9831399918
        1.0000000000         0.0000000000         0.0000000000
        0.0000000000         1.0000000000         0.0000000000
        0.0000000000         0.0000000000         1.0000000000
   Ba   Ti    O
    1    1    3
Cartesian
     0.000000000         0.000000000         0.000000000
     1.991569996         1.991569996         1.991569996
     1.991569996         1.991569996         0.000000000
     1.991569996         0.000000000         1.991569996
     0.000000000         1.991569996         1.991569996
